B N                                     
   1.00000000000000     
    19.8840544637408776    0.0000000000006172   -0.0000000000000000
    -9.9420272319193703   17.2200962958527164    0.0000000000000000
    -0.0000000000000000    0.0000000000000000   38.5363235474000021
   B    N 
   255   256
Direct
  0.0833012502834855  0.0416761797244118  0.1507404685997582
  0.0832965017133241  0.1666482548566589  0.1507393887176090
  0.0833012502834855  0.2916250595590692  0.1507404685997582
  0.0833124630528435  0.4166249111056681  0.1507410415949752
  0.0833246522216223  0.5416413492936732  0.1507396260678439
  0.0833310019358342  0.6666655199679256  0.1507378997182808
  0.0833246522216223  0.7916833409279590  0.1507396260678439
  0.0833124630528435  0.9166875599471620  0.1507410415949752
  0.2083055830554804  0.0416727802270216  0.1507437203255590
  0.2082979154630188  0.1666576567681592  0.1507489241058202
  0.2082979154630188  0.2916402446948369  0.1507489241058202
  0.2083055830554804  0.4166327848284287  0.1507437203255590
  0.2083166890720432  0.5416413492936732  0.1507396260678439
  0.2083294156892170  0.6666588323784517  0.1507422199200359
  0.2083294156892170  0.7916706143107854  0.1507422199200359
  0.2083166890720432  0.9166753707783830  0.1507396260678439
  0.3333228597867693  0.0416713508931553  0.1507483448313842
  0.3333147665470553  0.1666660986180116  0.1507440653258076
  0.3333094387569604  0.2916547048784843  0.1507446013208293
  0.3333147665470553  0.4166486539290425  0.1507440653258076
  0.3333228597867693  0.5416515208936150  0.1507483448313842
  0.3333345100320766  0.6666655199679256  0.1507378997182808
  0.3333411976215506  0.7916706143107854  0.1507422199200359
  0.3333345100320766  0.9166690210641710  0.1507378997182808
  0.4583485091063872  0.0416713508931553  0.1507483448313842
  0.4583359397514016  0.1666718655028021  0.1507384010648222
  0.4583256513146840  0.2916636744565142  0.1507429093282650
  0.4583256513146840  0.4166619478581851  0.1507429093282650
  0.4583359397514016  0.5416640902486007  0.1507384010648222
  0.4583485091063872  0.6666771702132260  0.1507483448313842
  0.4583586807063292  0.7916833409279590  0.1507396260678439
  0.4583586807063292  0.9166753707783830  0.1507396260678439
  0.5833671851715615  0.0416727802270216  0.1507437203255590
  0.5833513160709550  0.1666660986180116  0.1507440653258076
  0.5833380221418124  0.2916636744565142  0.1507429093282650
  0.5833333129999971  0.4166666570000004  0.1507247817925827
  0.5833380221418124  0.5416743786853184  0.1507429093282650
  0.5833513160709550  0.6666852634529472  0.1507440653258076
  0.5833671851715615  0.7916944469445222  0.1507437203255590
  0.5833750588943297  0.9166875599471620  0.1507410415949752
  0.7083749104409282  0.0416761797244118  0.1507404685997582
  0.7083597253051604  0.1666576567681592  0.1507489241058202
  0.7083452651215131  0.2916547048784843  0.1507446013208293
  0.7083362955434902  0.4166619478581851  0.1507429093282650
  0.7083362955434902  0.5416743786853184  0.1507429093282650
  0.7083452651215131  0.6666905912430422  0.1507446013208293
  0.7083597253051604  0.7917021145369837  0.1507489241058202
  0.7083749104409282  0.9166987727165198  0.1507404685997582
  0.8333567218992665  0.0416783724496146  0.1507396411964011
  0.8333517301433364  0.1666482548566589  0.1507393887176090
  0.8333423282318362  0.2916402446948369  0.1507489241058202
  0.8333338863819834  0.4166486539290425  0.1507440653258076
  0.8333281194971931  0.5416640902486007  0.1507384010648222
  0.8333338863819834  0.6666852634529472  0.1507440653258076
  0.8333423282318362  0.7917021145369837  0.1507489241058202
  0.8333517301433364  0.9167035212866814  0.1507393887176090
  0.9583216085503801  0.0416783724496146  0.1507396411964011
  0.9583216085503801  0.1666432631007288  0.1507396411964011
  0.9583238012755834  0.2916250595590692  0.1507404685997582
  0.9583272007729806  0.4166327848284287  0.1507437203255590
  0.9583286301068396  0.5416515208936150  0.1507483448313842
  0.9583286301068396  0.6666771702132260  0.1507483448313842
  0.9583272007729806  0.7916944469445222  0.1507437203255590
  0.9583238012755834  0.9166987727165198  0.1507404685997582
  0.0832326816572223  0.0416127078644586  0.3366576213329380
  0.0832951354737350  0.1666475717368749  0.3366725954430003
  0.0832326816572223  0.2916199627927593  0.3366576213329380
  0.0834847362913903  0.4169694575827900  0.3366697466338077
  0.0835477345981005  0.5418051353527563  0.3366725295047039
  0.0832126849257458  0.6666063614628673  0.3366390543525725
  0.0835477345981005  0.7917426372453477  0.3366725295047039
  0.0834847362913903  0.9165152867086150  0.3366697466338077
  0.2085271306675525  0.0419164236298495  0.3366724981746579
  0.2080784647206372  0.1665376068692548  0.3366978683700437
  0.2080784647206372  0.2915408438513742  0.3366978683700437
  0.2085271306675525  0.4166106890377016  0.3366724981746579
  0.2082573927546550  0.5418051353527563  0.3366725295047039
  0.2084238237846125  0.6668476485692286  0.3366770470612236
  0.2084238237846125  0.7915762062153902  0.3366770470612236
  0.2082573927546550  0.9164522884019047  0.3366725295047039
  0.3334816356261084  0.0418279270688883  0.3367203228007710
  0.3332337553595682  0.1668962125375167  0.3366548059589441
  0.3327063540268164  0.2913531625134089  0.3367977440890035
  0.3332337553595682  0.4163375288220646  0.3366548059589441
  0.3334816356261084  0.5416537205572282  0.3367203228007710
  0.3333936685371352  0.6666063614628673  0.3366390543525725
  0.3331523814307810  0.7915762062153902  0.3366770470612236
  0.3333936685371352  0.9167873380742598  0.3366390543525725
  0.4583463094427744  0.0418279270688883  0.3367203228007710
  0.4584474670231863  0.1668949200463714  0.3365425947750360
  0.4587854562795539  0.2931947046100625  0.3362689203741613
  0.4587854562795539  0.4155907226695139  0.3362689203741613
  0.4584474670231863  0.5415525629768160  0.3365425947750360
  0.4583463094427744  0.6665183943739010  0.3367203228007710
  0.4581948946472462  0.7917426372453477  0.3366725295047039
  0.4581948946472462  0.9164522884019047  0.3366725295047039
  0.5833892809622960  0.0419164236298495  0.3366724981746579
  0.5836624411779331  0.1668962125375167  0.3366548059589441
  0.5844092473304838  0.2931947046100625  0.3362689203741613
  0.5844092473304838  0.5412145737204487  0.3362689203741613
  0.5836624411779331  0.6667662746404343  0.3366548059589441
  0.5833892809622960  0.7914728993324500  0.3366724981746579
  0.5830305124172075  0.9165152867086150  0.3366697466338077
  0.7083800072072383  0.0416127078644586  0.3366576213329380
  0.7084591261486234  0.1665376068692548  0.3366978683700437
  0.7086468074865887  0.2913531625134089  0.3367977440890035
  0.7068052653899349  0.4155907226695139  0.3362689203741613
  0.7068052653899349  0.5412145737204487  0.3362689203741613
  0.7086468074865887  0.6672936759731859  0.3367977440890035
  0.7084591261486234  0.7919215652793652  0.3366978683700437
  0.7083800072072383  0.9167673413427831  0.3366576213329380
  0.8333944163163036  0.0416972196581616  0.3365973174294342
  0.8333524132631200  0.1666475717368749  0.3366725954430003
  0.8334623781307403  0.2915408438513742  0.3366978683700437
  0.8331037724624785  0.4163375288220646  0.3366548059589441
  0.8331050649536238  0.5415525629768160  0.3365425947750360
  0.8331037724624785  0.6667662746404343  0.3366548059589441
  0.8334623781307403  0.7919215652793652  0.3366978683700437
  0.8333524132631200  0.9167048875262704  0.3366725954430003
  0.9583027613418333  0.0416972196581616  0.3365973174294342
  0.9583027613418333  0.1666055686836916  0.3365973174294342
  0.9583872731355362  0.2916199627927593  0.3366576213329380
  0.9580835573701453  0.4166106890377016  0.3366724981746579
  0.9581720539310994  0.5416537205572282  0.3367203228007710
  0.9581720539310994  0.6665183943739010  0.3367203228007710
  0.9580835573701453  0.7914728993324500  0.3366724981746579
  0.9583872731355362  0.9167673413427831  0.3366576213329380
  0.0416393361096943  0.0833300245324915  0.0633293588213220
  0.0416393361096943  0.2083093225772071  0.0633293588213220
  0.0416495167343591  0.3332990404687223  0.0633288700947192
  0.0416628112334282  0.4583083193417936  0.0633293698051746
  0.0416724343375428  0.5833270571942122  0.0633317988807252
  0.0416724343375428  0.7083453351433416  0.0633317988807252
  0.0416628112334282  0.8333544798916408  0.0633293698051746
  0.0416495167343591  0.9583504642656357  0.0633288700947192
  0.1666286840528211  0.0833258523303542  0.0633314227446346
  0.1666208510842359  0.2083104325421114  0.0633324686720566
  0.1666286840528211  0.3333028387224781  0.0633314227446346
  0.1666455051083545  0.4583083193417936  0.0633293698051746
  0.1666603563714201  0.5833206817428411  0.0633291617989095
  0.1666668693245490  0.7083334116622761  0.0633277866078352
  0.1666603563714201  0.8333396286285680  0.0633291617989095
  0.1666455051083545  0.9583371697665667  0.0633293698051746
  0.2916379227251756  0.0833226131794822  0.0633317932897691
  0.2916269306134896  0.2083152289905441  0.0633321086790879
  0.2916269306134896  0.3333117306229373  0.0633321086790879
  0.2916379227251756  0.4583153315456883  0.0633317932897691
  0.2916546348566560  0.5833270571942122  0.0633317988807252
  0.2916665583377213  0.7083334116622761  0.0633277866078352
  0.2916665583377213  0.8333331156754461  0.0633277866078352
  0.2916546348566560  0.9583275466624520  0.0633317988807252
  0.4166588926147242  0.0833178072294575  0.0633317989086942
  0.4166444725283616  0.2083163803336220  0.0633277787608562
  0.4166368186836240  0.3333184238418148  0.0633245434201141
  0.4166444725283616  0.4583281211947452  0.0633277787608562
  0.4166588926147242  0.5833410773852733  0.0633317989086942
  0.4166729128057857  0.7083453351433416  0.0633317988807252
  0.4166792882571563  0.8333396286285680  0.0633291617989095
  0.4166729128057857  0.9583275466624520  0.0633317988807252
  0.5416846984543143  0.0833226131794822  0.0633317932897691
  0.5416719088052572  0.2083163803336220  0.0633277787608562
  0.5416610948909061  0.3333221587817988  0.0633315028625051
  0.5416610948909061  0.4583389351090966  0.0633315028625051
  0.5416719088052572  0.5833554974716362  0.0633277787608562
  0.5416846984543143  0.7083620472748219  0.0633317932897691
  0.5416917106582088  0.8333544798916408  0.0633293698051746
  0.5416917106582088  0.9583371697665667  0.0633293698051746
  0.6666971912775241  0.0833258523303542  0.0633314227446346
  0.6666882993770652  0.2083152289905441  0.0633321086790879
  0.6666816061581944  0.3333184238418148  0.0633245434201141
  0.6666778712182039  0.4583389351090966  0.0633315028625051
  0.6666816061581944  0.5833631513163738  0.0633245434201141
  0.6666882993770652  0.7083730393865080  0.0633321086790879
  0.6666971912775241  0.8333713009471740  0.0633314227446346
  0.6667009895312800  0.9583504642656357  0.0633288700947192
  0.7916907074227951  0.0833300245324915  0.0633293588213220
  0.7916895974578912  0.2083104325421114  0.0633324686720566
  0.7916848010094585  0.3333117306229373  0.0633321086790879
  0.7916836496663803  0.4583281211947452  0.0633277787608562
  0.7916836496663803  0.5833554974716362  0.0633277787608562
  0.7916848010094585  0.7083730393865080  0.0633321086790879
  0.7916895974578912  0.8333791339157591  0.0633324686720566
  0.7916907074227951  0.9583606448903005  0.0633293588213220
  0.9166666870000029  0.0833333360000026  0.0633243270794805
  0.9166699984675138  0.2083093225772071  0.0633293588213220
  0.9166741706696513  0.3333028387224782  0.0633314227446346
  0.9166774098205230  0.4583153315456883  0.0633317932897691
  0.9166822157705482  0.5833410773852733  0.0633317989086942
  0.9166774098205230  0.7083620472748219  0.0633317932897691
  0.9166741706696513  0.8333713009471740  0.0633314227446346
  0.9166699984675138  0.9583606448903005  0.0633293588213220
  0.0416348529723333  0.0833249547216428  0.2492606401224559
  0.0416348529723333  0.2083099092506950  0.2492606401224559
  0.0416546054811538  0.3333092179623118  0.2493143917206819
  0.0416691943245798  0.4583115642052178  0.2492423316929678
  0.0416699220891194  0.5833284239577389  0.2492082356382544
  0.0416699220891194  0.7083414561313842  0.2492082356382544
  0.0416691943245798  0.8333576181193539  0.2492423316929678
  0.0416546054811538  0.9583453755188411  0.2493143917206819
  0.1666188594591233  0.0833206464139012  0.2491765929211512
  0.1666285149885720  0.2083142644942901  0.2491397627178328
  0.1666188594591233  0.3332982200452264  0.2491765929211512
  0.1666423668806413  0.4583115642052178  0.2492423316929678
  0.1666758510870852  0.5833516711741644  0.2493188531802067
  0.1666801196235745  0.7083400368117819  0.2492233170121580
  0.1666758510870852  0.8333241339129100  0.2493188531802067
  0.1666423668806413  0.9583307866754154  0.2492423316929678
  0.2916444574540647  0.0833358346561288  0.2492480716948471
  0.2916420670067494  0.2083339444623107  0.2493864290646903
  0.2916420670067494  0.3333081515444375  0.2493864290646903
  0.2916444574540647  0.4583086447979379  0.2492480716948471
  0.2916585138686134  0.5833284239577389  0.2492082356382544
  0.2916599331882157  0.7083400368117819  0.2492233170121580
  0.2916599331882157  0.8333198653764207  0.2492233170121580
  0.2916585138686134  0.9583300589108755  0.2492082356382544
  0.4166789656582372  0.0833579533164905  0.2493210142574252
  0.4167030608421429  0.2083914858935378  0.2491056261801602
  0.4167003274314721  0.3333501782157425  0.2487436403953481
  0.4167030608421429  0.4583116039486042  0.2491056261801602
  0.4166789656582372  0.5833210043417602  0.2493210142574252
  0.4166715460422586  0.7083414561313842  0.2492082356382544
  0.4166482988258333  0.8333241339129100  0.2493188531802067
  0.4166715460422586  0.9583300589108755  0.2492082356382544
  0.5416913852020645  0.0833358346561288  0.2492480716948471
  0.5416884260513983  0.2083914858935378  0.2491056261801602
  0.5417513160843856  0.3335026011687583  0.2490916962643488
  0.5417513160843856  0.4582487139156167  0.2490916962643488
  0.5416884260513983  0.5832969091578616  0.2491056261801602
  0.5416913852020645  0.7083555125459325  0.2492480716948471
  0.5416884657947846  0.8333576181193539  0.2492423316929678
  0.5416884657947846  0.9583307866754154  0.2492423316929678
  0.6667018099547761  0.0833206464139012  0.2491765929211512
  0.6666918784555649  0.2083339444623107  0.2493864290646903
  0.6666498517842600  0.3333501782157425  0.2487436403953481
  0.6664974288312441  0.4582487139156167  0.2490916962643488
  0.6666498517842600  0.5832996425685255  0.2487436403953481
  0.6666918784555649  0.7083579029932481  0.2493864290646903
  0.6667018099547761  0.8333811255408720  0.2491765929211512
  0.6666908120376910  0.9583453755188411  0.2493143917206819
  0.7916901207493144  0.0833249547216428  0.2492606401224559
  0.7916857655057121  0.2083142644942901  0.2491397627178328
  0.7916660855376917  0.3333081515444375  0.2493864290646903
  0.7916085441064648  0.4583116039486042  0.2491056261801602
  0.7916085441064648  0.5832969091578616  0.2491056261801602
  0.7916660855376917  0.7083579029932481  0.2493864290646903
  0.7916857655057121  0.8333714700114303  0.2491397627178328
  0.7916901207493144  0.9583651280276617  0.2492606401224559
  0.9166666870000029  0.0833333360000026  0.2491725755303689
  0.9166750682783624  0.2083099092506950  0.2492606401224559
  0.9166793765861041  0.3332982200452264  0.2491765929211512
  0.9166641883438695  0.4583086447979379  0.2492480716948471
  0.9166420696835150  0.5833210043417602  0.2493210142574252
  0.9166641883438695  0.7083555125459325  0.2492480716948471
  0.9166793765861041  0.8333811255408720  0.2491765929211512
  0.9166750682783624  0.9583651280276617  0.2492606401224559
  0.0833631673014904  0.0416604954115365  0.0633006377988708
  0.0833704518347903  0.1666852299173955  0.0633029883595022
  0.0833631673014904  0.2917026608899565  0.0633006377988708
  0.0833494570562499  0.4166988991125021  0.0632972313904651
  0.0833384503411119  0.5416893924522090  0.0633009021837317
  0.0833345687287146  0.6666673033643551  0.0633035245614008
  0.0833384503411119  0.7916490958889130  0.0633009021837317
  0.0833494570562499  0.9166505659437487  0.0632972313904651
  0.2083654030473254  0.0416680213010681  0.0633018157343462
  0.2083756972960558  0.1666813560657819  0.0633018915060890
  0.2083756972960558  0.2916943272302799  0.0633018915060890
  0.2083654030473254  0.4166973637462557  0.0633018157343462
  0.2083509341110893  0.5416893924522090  0.0633009021837317
  0.2083362929650980  0.6666725869302071  0.0632963880168559
  0.2083362929650980  0.7916637370348972  0.0632963880168559
  0.2083509341110893  0.9166615726588936  0.0633009021837317
  0.3333493045467688  0.0416722143303813  0.0633011356932059
  0.3333631064151727  0.1666778922072292  0.0633001322551387
  0.3333699142509667  0.2916849426254911  0.0633001651637811
  0.3333631064151727  0.4166852002079565  0.0633001322551387
  0.3333493045467688  0.5416771022163813  0.0633011356932059
  0.3333327266356472  0.6666673033643551  0.0633035245614008
  0.3333274430697958  0.7916637370348972  0.0632963880168559
  0.3333327266356472  0.9166654542712909  0.0633035245614008
  0.4583229277836069  0.0416722143303813  0.0633011356932059
  0.4583389851452771  0.1666779562905670  0.0632995577474465
  0.4583515621984047  0.2916805425987117  0.0632919135668952
  0.4583515621984047  0.4166709905997012  0.0632919135668952
  0.4583389851452771  0.5416610448547254  0.0632995577474465
  0.4583229277836069  0.6666507254532338  0.0633011356932059
  0.4583106375477934  0.7916490958889130  0.0633009021837317
  0.4583106375477934  0.9166615726588936  0.0633009021837317
  0.5833026062537419  0.0416680213010681  0.0633018157343462
  0.5833147697920411  0.1666778922072292  0.0633001322551387
  0.5833289794002962  0.2916805425987117  0.0632919135668952
  0.5833333129999971  0.4166666570000004  0.0633216479397692
  0.5833289794002962  0.5416484678015976  0.0632919135668952
  0.5833147697920411  0.6666369235848298  0.0633001322551387
  0.5833026062537419  0.7916346269526768  0.0633018157343462
  0.5833010708875024  0.9166505659437487  0.0632972313904651
  0.7082973091100410  0.0416604954115365  0.0633006377988708
  0.7083056427697174  0.1666813560657819  0.0633018915060890
  0.7083150273745136  0.2916849426254911  0.0633001651637811
  0.7083194274012860  0.4166709905997012  0.0632919135668952
  0.7083194274012860  0.5416484678015976  0.0632919135668952
  0.7083150273745065  0.6666301157490357  0.0633001651637811
  0.7083056427697174  0.7916243327039393  0.0633018915060890
  0.7082973091100410  0.9166368556985149  0.0633006377988708
  0.8333127262164860  0.0416563746082421  0.0632951906278081
  0.8333147550825999  0.1666852299173955  0.0633029883595022
  0.8333186289342133  0.2916943272302799  0.0633018915060890
  0.8333220927927660  0.4166852002079565  0.0633001322551387
  0.8333220287094280  0.5416610448547254  0.0632995577474465
  0.8333220927927660  0.6666369235848298  0.0633001322551387
  0.8333186289342133  0.7916243327039393  0.0633018915060890
  0.8333147550825999  0.9166295711652150  0.0633029883595022
  0.9583436063917528  0.0416563746082421  0.0632951906278081
  0.9583436063917528  0.1666872587835093  0.0632951906278081
  0.9583394855884655  0.2917026608899565  0.0633006377988708
  0.9583319596989269  0.4166973637462557  0.0633018157343462
  0.9583277666696135  0.5416771022163813  0.0633011356932059
  0.9583277666696135  0.6666507254532338  0.0633011356932059
  0.9583319596989269  0.7916346269526768  0.0633018157343462
  0.9583394855884655  0.9166368556985149  0.0633006377988708
  0.0833179422378578  0.0416502369834830  0.2493440408566155
  0.0833035037590371  0.1666517558795117  0.2492561408212089
  0.0833179422378578  0.2916676942543703  0.2493440408566155
  0.0833525587539009  0.4167051025077900  0.2493077468212664
  0.0833662174420579  0.5416925052317668  0.2493526532953803
  0.0833694388609727  0.6666847384304844  0.2492662432788955
  0.0833662174420579  0.7916737502102872  0.2493526532953803
  0.0833525587539009  0.9166474642461047  0.2493077468212664
  0.2083154613983645  0.0416275104122986  0.2491937674822368
  0.2083173221629087  0.1666436894016202  0.2491924414451941
  0.2083173221629087  0.2916736187612803  0.2491924414451941
  0.2083154613983645  0.4166879329860576  0.2491937674822368
  0.2083262797897152  0.5416925052317668  0.2493526532953803
  0.2083423669608299  0.6666847349216422  0.2492576722846349
  0.2083423669608299  0.7916576630391727  0.2492576722846349
  0.2083262797897152  0.9166338055579478  0.2493526532953803
  0.3333136077662014  0.0416233457208233  0.2491898411465030
  0.3332994448018540  0.1666310735306616  0.2494393356196327
  0.3332826901722120  0.2916413305860959  0.2495027720823453
  0.3332994448018540  0.4166683572711843  0.2494393356196327
  0.3333136077662014  0.5416902740453862  0.2491898411465030
  0.3333152915695182  0.6666847384304844  0.2492662432788955
  0.3333152950783533  0.7916576630391727  0.2492576722846349
  0.3333152915695182  0.9166305841390329  0.2492662432788955
  0.4583097559546164  0.0416233457208233  0.2491898411465030
  0.4583050791802700  0.1666101443605246  0.2494984764495815
  0.4583121340836442  0.2916456494592425  0.2485033538844772
  0.4583121340836442  0.4166664556243888  0.2485033538844772
  0.4583050791802700  0.5416949508197326  0.2494984764495815
  0.4583097559546164  0.6666864222338011  0.2491898411465030
  0.4583075247682358  0.7916737502102872  0.2493526532953803
  0.4583075247682358  0.9166338055579478  0.2493526532953803
  0.5833120370139401  0.0416275104122986  0.2491937674822368
  0.5833316127288137  0.1666310735306616  0.2494393356196327
  0.5833335143756019  0.2916456494592496  0.2485033538844772
  0.5833333129999971  0.4166666570000004  0.2497167837525228
  0.5833335143756019  0.5416878959163581  0.2485033538844772
  0.5833316127288137  0.6667005851981485  0.2494393356196327
  0.5833120370139401  0.7916845686016377  0.2491937674822368
  0.5832948674922079  0.9166474642461047  0.2493077468212664
  0.7083322757456275  0.0416502369834830  0.2493440408566155
  0.7083263512387172  0.1666436894016202  0.2491924414451941
  0.7083586394138948  0.2916413305860959  0.2495027720823453
  0.7083543205407552  0.4166664556243888  0.2485033538844772
  0.7083543205407552  0.5416878959163581  0.2485033538844772
  0.7083586394138948  0.6667173398277977  0.2495027720823453
  0.7083263512387172  0.7916827078370937  0.2491924414451941
  0.7083322757456275  0.9166820807621477  0.2493440408566155
  0.8333487683611741  0.0416743956805862  0.2492348039812929
  0.8333482291204835  0.1666517558795117  0.2492561408212089
  0.8333562955983752  0.2916736187612803  0.2491924414451941
  0.8333689114693337  0.4166683572711843  0.2494393356196327
  0.8333898406394705  0.5416949508197326  0.2494984764495815
  0.8333689114693337  0.6667005851981485  0.2494393356196327
  0.8333562955983752  0.7916827078370937  0.2491924414451941
  0.8333482291204835  0.9166965192409685  0.2492561408212089
  0.9583255853194086  0.0416743956805862  0.2492348039812929
  0.9583255853194086  0.1666512166388211  0.2492348039812929
  0.9583497440165117  0.2916676942543703  0.2493440408566155
  0.9583724705876963  0.4166879329860576  0.2491937674822368
  0.9583766352791717  0.5416902740453862  0.2491898411465030
  0.9583766352791717  0.6666864222338011  0.2491898411465030
  0.9583724705876963  0.7916845686016377  0.2491937674822368
  0.9583497440165117  0.9166820807621477  0.2493440408566155
  0.0416977045400359  0.0833361711670222  0.1507172423496956
  0.0416977045400359  0.2083615443730110  0.1507172423496956
  0.0416855083278311  0.3333710236556520  0.1507227892634524
  0.0416735747209854  0.4583627953222487  0.1507186588730509
  0.0416662319850941  0.5833430027708888  0.1507162967150677
  0.0416662319850941  0.7083231872141950  0.1507162967150677
  0.0416735747209854  0.8333107673987360  0.1507186588730509
  0.0416855083278311  0.9583144726721636  0.1507227892634524
  0.1667031439342587  0.0833374377800805  0.1507203843087976
  0.1667080436039462  0.2083540288019844  0.1507227371729412
  0.1667031439342587  0.3333657131541894  0.1507203843087976
  0.1666892176012594  0.4583627953222487  0.1507186588730509
  0.1666732387953023  0.5833464465905984  0.1507205304887887
  0.1666653417851963  0.7083326478925926  0.1507177723074448
  0.1666732387953023  0.8333267462046929  0.1507205304887887
  0.1666892176012594  0.9583264062790092  0.1507186588730509
  0.2916905727049660  0.0833370092269788  0.1507222989895028
  0.2917003206612832  0.2083464209127360  0.1507246124925002
  0.2917003206612832  0.3333539287485532  0.1507246124925002
  0.2916905727049660  0.4583535854779963  0.1507222989895028
  0.2916767827858024  0.5833430027708888  0.1507162967150677
  0.2916673221074048  0.7083326478925926  0.1507177723074448
  0.2916673221074048  0.8333346432147988  0.1507177723074448
  0.2916767827858024  0.9583337490149005  0.1507162967150677
  0.4166688297664826  0.0833376815329672  0.1507246961959387
  0.4166843783182189  0.2083446401634620  0.1507071766033814
  0.4166926167447895  0.3333463228723871  0.1507062935473464
  0.4166843783182189  0.4583397671547557  0.1507071766033814
  0.4166688297664826  0.5833311402335146  0.1507246961959387
  0.4166569672291089  0.7083231872141950  0.1507162967150677
  0.4166535234093990  0.8333267462046929  0.1507205304887887
  0.4166569672291089  0.9583337490149005  0.1507162967150677
  0.5416464445220066  0.0833370092269788  0.1507222989895028
  0.5416602628452469  0.2083446401634620  0.1507071766033814
  0.5416727258263511  0.3333454206527104  0.1506969915098134
  0.5416727258263511  0.4583273041736513  0.1506969915098134
  0.5416602628452469  0.5833155916817784  0.1507071766033814
  0.5416464445220066  0.7083093972950316  0.1507222989895028
  0.5416372346777542  0.8333107673987360  0.1507186588730509
  0.5416372346777542  0.9583264062790092  0.1507186588730509
  0.6666343168458129  0.0833374377800805  0.1507203843087976
  0.6666461012514496  0.2083464209127360  0.1507246124925002
  0.6666537071276153  0.3333463228723871  0.1507062935473464
  0.6666546093472919  0.4583273041736513  0.1506969915098134
  0.6666537071276153  0.5833073532552079  0.1507062935473464
  0.6666461012514496  0.7082996493387145  0.1507246124925002
  0.6666343168458129  0.8332968410657366  0.1507203843087976
  0.6666290063443503  0.9583144726721636  0.1507227892634524
  0.7916384856269919  0.0833361711670222  0.1507172423496956
  0.7916460011980182  0.2083540288019844  0.1507227371729412
  0.7916536090872665  0.3333539287485532  0.1507246124925002
  0.7916553898365405  0.4583397671547557  0.1507071766033814
  0.7916553898365405  0.5833155916817784  0.1507071766033814
  0.7916536090872665  0.7082996493387145  0.1507246124925002
  0.7916460011980182  0.8332919413960417  0.1507227371729412
  0.7916384856269919  0.9583022764599662  0.1507172423496956
  0.9166666870000029  0.0833333360000026  0.1507177091985187
  0.9166638518329832  0.2083615443730110  0.1507172423496956
  0.9166625852199251  0.3333657131541894  0.1507203843087976
  0.9166630137730267  0.4583535854779963  0.1507222989895028
  0.9166623414670384  0.5833311402335146  0.1507246961959387
  0.9166630137730267  0.7083093972950316  0.1507222989895028
  0.9166625852199251  0.8332968410657366  0.1507203843087976
  0.9166638518329832  0.9583022764599662  0.1507172423496956
  0.0415611718482349  0.0833364899009925  0.3367071889169094
  0.0415611718482349  0.2082246929472327  0.3367071889169094
  0.0417705818007513  0.3335411706014926  0.3367132779707766
  0.0416200920618606  0.4585388223499560  0.3367141606814395
  0.0416282002887210  0.5831850149540189  0.3366837591235090
  0.0416282002887210  0.7084431433346914  0.3366837591235090
  0.0416200920618606  0.8330812577118963  0.3367141606814395
  0.0417705818007513  0.9582293991992437  0.3367132779707766
  0.1665329654928968  0.0832432966306925  0.3366721445528533
  0.1666232503081186  0.2083116321540528  0.3367123602699708
  0.1665329654928968  0.3332896758622156  0.3366721445528533
  0.1669187272880986  0.4585388223499560  0.3367141606814395
  0.1668128560362621  0.5836256810725111  0.3367441321625222
  0.1667108481809050  0.7083554010904436  0.3366966800096067
  0.1668128560362621  0.8331871289637330  0.3367441321625222
  0.1669187272880986  0.9583798889381412  0.3367141606814395
  0.2919081630456851  0.0835784195933520  0.3367475178085209
  0.2913662871584344  0.2081401829737476  0.3367964024570200
  0.2913662871584344  0.3332261331846857  0.3367964024570200
  0.2919081630456851  0.4583297654523208  0.3367475178085209
  0.2915568266652992  0.5831850149540189  0.3366837591235090
  0.2916445689095540  0.7083554010904436  0.3366966800096067
  0.2916445689095540  0.8332891368190972  0.3366966800096067
  0.2915568266652992  0.9583717807112738  0.3366837591235090
  0.4167844568850541  0.0835689357701241  0.3367936747551149
  0.4168087000006470  0.2084259559607052  0.3365406464273561
  0.4155617328909209  0.3327808809454600  0.3367664134626572
  0.4168087000006470  0.4583827730399194  0.3365406464273561
  0.4167844568850541  0.5832155131149434  0.3367936747551149
  0.4168149550459783  0.7084431433346914  0.3366837591235090
  0.4163742889274865  0.8331871289637330  0.3367441321625222
  0.4168149550459783  0.9583717807112738  0.3366837591235090
  0.5416702645476814  0.0835784195933519  0.3367475178085209
  0.5416172569600836  0.2084259559607052  0.3365406464273561
  0.5401770912000419  0.3303541514000851  0.3350165738482562
  0.5401770912000419  0.4598229387999604  0.3350165738482562
  0.5416172569600836  0.5831912699993576  0.3365406464273561
  0.5416702645476814  0.7080918069543123  0.3367475178085209
  0.5414612076500394  0.8330812577118963  0.3367141606814395