B N                                     
   1.00000000000000     
    19.8882265251935841    0.0000000000006056    0.0000000000000000
    -9.9441132626457396   17.2237094070569228    0.0000000000000000
    -0.0000000000000000    0.0000000000000000   38.5363235474000021
   B    N 
   255   256
Direct
  0.0833189753787139  0.0416713488561120  0.1522759172775545
  0.0833054379173045  0.1666527229586490  0.1522647525203972
  0.0833189753787139  0.2916476155225974  0.1522759172775545
  0.0833246319958416  0.4166492489916714  0.1522685103944691
  0.0833320696392133  0.5416380725005097  0.1522807750477913
  0.0833299934032123  0.6666650157016185  0.1522627652668573
  0.0833320696392133  0.7916940351387136  0.1522807750477913
  0.0833246319958416  0.9166753910041638  0.1522685103944691
  0.2083080334962052  0.0416609651126839  0.1522418836399628
  0.2083284842404620  0.1666560440050024  0.1522399656375546
  0.2083284842404620  0.2916724262354370  0.1522399656375546
  0.2083080334962052  0.4166470503834987  0.1522418836399628
  0.2083059948612885  0.5416380725005097  0.1522807750477913
  0.2083239416365103  0.6666478842730457  0.1522879647957166
  0.2083239416365103  0.7916760883634923  0.1522879647957166
  0.2083059948612885  0.9166679533607923  0.1522807750477913
  0.3333174125938062  0.0416651276169782  0.1522624467208863
  0.3333173729295845  0.1666647286182947  0.1522565088299822
  0.3333244467290705  0.2916622088645357  0.1522416953175145
  0.3333173729295845  0.4166526303112885  0.1522565088299822
  0.3333174125938062  0.5416522969768290  0.1522624467208863
  0.3333350142983842  0.6666650157016185  0.1522627652668573
  0.3333521457269570  0.7916760883634923  0.1522879647957166
  0.3333350142983842  0.9166700295967933  0.1522627652668573
  0.4583477330231734  0.0416651276169782  0.1522624467208863
  0.4583321709346067  0.1666643278692120  0.1522902856961218
  0.4583203387858154  0.2916646459979538  0.1524755498948004
  0.4583203387858154  0.4166556637878842  0.1524755498948004
  0.4583321709346067  0.5416678590653959  0.1522902856961218
  0.4583477330231734  0.6666826174061892  0.1522624467208863
  0.4583619574994928  0.7916940351387136  0.1522807750477913
  0.4583619574994928  0.9166679533607923  0.1522807750477913
  0.5833529196164918  0.0416609651126839  0.1522418836399628
  0.5833473396887090  0.1666647286182947  0.1522565088299822
  0.5833443062121133  0.2916646459979538  0.1524755498948004
  0.5833333129999971  0.4166666570000004  0.1528721936000111
  0.5833443062121133  0.5416796912141870  0.1524755498948004
  0.5833473396887090  0.6666826570704180  0.1522565088299822
  0.5833529196164918  0.7916919965037971  0.1522418836399628
  0.5833507210083335  0.9166753910041638  0.1522685103944691
  0.7083523544773999  0.0416713488561120  0.1522759172775545
  0.7083275437645604  0.1666560440050024  0.1522399656375546
  0.7083377611354620  0.2916622088645357  0.1522416953175145
  0.7083353240020508  0.4166556637878842  0.1524755498948004
  0.7083353240020508  0.5416796912141870  0.1524755498948004
  0.7083377611354620  0.6666755832709322  0.1522416953175145
  0.7083275437645604  0.7916715457595407  0.1522399656375546
  0.7083523544773999  0.9166810476212913  0.1522759172775545
  0.8333525022506327  0.0416762626253013  0.1522936954729044
  0.8333472620413461  0.1666527229586490  0.1522647525203972
  0.8333439409949925  0.2916724262354370  0.1522399656375546
  0.8333352563817004  0.4166526303112885  0.1522565088299822
  0.8333356571307831  0.5416678590653959  0.1522902856961218
  0.8333352563817004  0.6666826570704180  0.1522565088299822
  0.8333439409949925  0.7916715457595407  0.1522399656375546
  0.8333472620413461  0.9166945850827010  0.1522647525203972
  0.9583237183746938  0.0416762626253013  0.1522936954729044
  0.9583237183746938  0.1666474827493625  0.1522936954729044
  0.9583286321438830  0.2916476155225974  0.1522759172775545
  0.9583390158873184  0.4166470503834987  0.1522418836399628
  0.9583348533830165  0.5416522969768290  0.1522624467208863
  0.9583348533830165  0.6666826174061892  0.1522624467208863
  0.9583390158873184  0.7916919965037971  0.1522418836399628
  0.9583286321438830  0.9166810476212913  0.1522759172775545
  0.0831924299513123  0.0411115364954442  0.3340243500681609
  0.0825291319219395  0.1662645699609771  0.3341158072863133
  0.0831924299513123  0.2920808824558636  0.3340243500681609
  0.0839783992355870  0.4179567834711833  0.3341093821725412
  0.0837015888217692  0.5425130280303765  0.3341568221555876
  0.0835290765554466  0.6667645572777177  0.3342456356548429
  0.0837015888217692  0.7911885987913955  0.3341568221555876
  0.0839783992355870  0.9160216237644185  0.3341093821725412
  0.2073104360877585  0.0407784835880179  0.3342595457302282
  0.2087887375899932  0.1673252445668416  0.3343082796267030
  0.2087887375899932  0.2914634790231434  0.3343082796267030
  0.2073104360877585  0.4165319344997392  0.3342595457302282
  0.2088114312086070  0.5425130280303766  0.3341568221555876
  0.2086797380931214  0.6673594771862464  0.3340829005160558
  0.2086797380931214  0.7913202919068810  0.3340829005160558
  0.2088114312086070  0.9162984341782362  0.3341568221555876
  0.3322889659612783  0.0419797542206991  0.3342051690222478
  0.3341629374312211  0.1678463400374919  0.3341504213536053
  0.3344710394550929  0.2922355052275469  0.3344425059411816
  0.3341629374312211  0.4163165833937421  0.3341504213536053
  0.3322889659612783  0.5403092237405875  0.3342051690222478
  0.3332354727222847  0.6667645572777177  0.3342456356548429
  0.3326405528137632  0.7913202919068810  0.3340829005160558
  0.3332354727222847  0.9164709464445588  0.3342456356548429
  0.4596908062594151  0.0419797542206991  0.3342051690222478
  0.4582304750148602  0.1664609360297262  0.3340151683829420
  0.4597920520252040  0.2932607932924173  0.3331756946354068
  0.4597920520252040  0.4165312297328020  0.3331756946354068
  0.4582304750148602  0.5417695549851426  0.3340151683829420
  0.4596908062594151  0.6677110640387313  0.3342051690222478
  0.4574870019696256  0.7911885987913955  0.3341568221555876
  0.4574870019696256  0.9162984341782362  0.3341568221555876
  0.5834680355002585  0.0407784835880179  0.3342595457302282
  0.5836833866062556  0.1678463400374919  0.3341504213536053
  0.5834687402671958  0.2932607932924173  0.3331756946354068
  0.5834687402671958  0.5402079779747986  0.3331756946354068
  0.5836833866062556  0.6658370925687815  0.3341504213536053
  0.5834680355002585  0.7926895939122441  0.3342595457302282
  0.5820431865288140  0.9160216237644185  0.3341093821725412
  0.7079190875441340  0.0411115364954442  0.3340243500681609
  0.7085364909768541  0.1673252445668416  0.3343082796267030
  0.7077644647724507  0.2922355052275469  0.3344425059411816
  0.7067391767075731  0.4165312297328020  0.3331756946354068
  0.7067391767075731  0.5402079779747986  0.3331756946354068
  0.7077644647724507  0.6655289905449098  0.3344425059411816
  0.7085364909768541  0.7912112924100090  0.3343082796267030
  0.7079190875441340  0.9168075930486931  0.3340243500681609
  0.8339662829558055  0.0419831529779127  0.3340576842988242
  0.8337354150390180  0.1662645699609771  0.3341158072863133
  0.8326747404331536  0.2914634790231434  0.3343082796267030
  0.8321536449625030  0.4163165833937421  0.3341504213536053
  0.8335390489702689  0.5417695549851426  0.3340151683829420
  0.8321536449625030  0.6658370925687815  0.3341504213536053
  0.8326747404331536  0.7912112924100090  0.3343082796267030
  0.8337354150390180  0.9174708910780659  0.3341158072863133
  0.9580168280220819  0.0419831529779127  0.3340576842988242
  0.9580168280220819  0.1660337020441894  0.3340576842988242
  0.9588884445045506  0.2920808824558636  0.3340243500681609
  0.9592214974119770  0.4165319344997392  0.3342595457302282
  0.9580202267792888  0.5403092237405875  0.3342051690222478
  0.9580202267792888  0.6677110640387313  0.3342051690222478
  0.9592214974119770  0.7926895939122441  0.3342595457302282
  0.9588884445045506  0.9168075930486931  0.3340243500681609
  0.0416383745704668  0.0833304602330010  0.0658830665028385
  0.0416383745704668  0.2083079253374703  0.0658830665028385
  0.0416557401123131  0.3333114872246304  0.0658906048930630
  0.0416724034707678  0.4583212961548616  0.0658843821992453
  0.0417017107736598  0.5833428930942078  0.0658756353386802
  0.0417017107736598  0.7083587756794625  0.0658756353386802
  0.0416724034707678  0.8333510953159120  0.0658843821992453
  0.0416557401123131  0.9583442408876818  0.0658906048930630
  0.1666222481525064  0.0833106087566725  0.0658786051440197
  0.1666105062869518  0.2083052601434730  0.0658751080992841
  0.1666222481525064  0.3333116463958452  0.0658786051440197
  0.1666488896840830  0.4583212961548616  0.0658843821992453
  0.1666719176664404  0.5833438043328748  0.0658870282865704
  0.1666673588871345  0.7083336564435653  0.0658827485830286
  0.1666719176664404  0.8333280673335477  0.0658870282865704
  0.1666488896840830  0.9583275775292273  0.0658843821992453
  0.2916295238508204  0.0832907443748530  0.0658802126840836
  0.2916037115855958  0.2082956049012692  0.0658849506757250
  0.2916037115855958  0.3333081356843180  0.0658849506757250
  0.2916295238508204  0.4583388014759694  0.0658802126840836
  0.2916411943205350  0.5833428930942078  0.0658756353386802
  0.2916663135564322  0.7083336564435653  0.0658827485830286
  0.2916663135564322  0.8333326261128609  0.0658827485830286
  0.2916411943205350  0.9582982702263350  0.0658756353386802
  0.4166405847147872  0.0832811914295759  0.0658859473860596
  0.4166396443680415  0.2083041175925186  0.0659100349121857
  0.4166388091875744  0.3333194190937938  0.0659379960649547
  0.4166396443680415  0.4583355557755288  0.0659100349121857
  0.4166405847147872  0.5833593852852106  0.0658859473860596
  0.4166570769057894  0.7083587756794625  0.0658756353386802
  0.4166561656671228  0.8333280673335477  0.0658870282865704
  0.4166570769057894  0.9582982702263350  0.0658756353386802
  0.5416612285240334  0.0832907443748530  0.0658802126840836
  0.5416644742244736  0.2083041175925186  0.0659100349121857
  0.5416564740430286  0.3333129170860434  0.0660577924347140
  0.5416564740430286  0.4583435559569742  0.0660577924347140
  0.5416644742244736  0.5833603256319559  0.0659100349121857
  0.5416612285240334  0.7083704461491767  0.0658802126840836
  0.5416787338451406  0.8333510953159120  0.0658843821992453
  0.5416787338451406  0.9583275775292273  0.0658843821992453
  0.6666883836041573  0.0833106087566725  0.0658786051440197
  0.6666918943156844  0.2082956049012692  0.0658849506757250
  0.6666806109062160  0.3333194190937938  0.0659379960649547
  0.6666871129139591  0.4583435559569742  0.0660577924347140
  0.6666806109062160  0.5833611608124231  0.0659379960649547
  0.6666918943156844  0.7083962584144019  0.0658849506757250
  0.6666883836041573  0.8333777368474888  0.0658786051440197
  0.6666885427753725  0.9583442408876818  0.0658906048930630
  0.7916921046625321  0.0833304602330010  0.0658830665028385
  0.7916947698565298  0.2083052601434730  0.0658751080992841
  0.7917044250987332  0.3333081356843180  0.0658849506757250
  0.7916959124074843  0.4583355557755288  0.0659100349121857
  0.7916959124074843  0.5833603256319559  0.0659100349121857
  0.7917044250987332  0.7083962584144019  0.0658849506757250
  0.7916947698565298  0.8333894787130364  0.0658751080992841
  0.7916921046625321  0.9583616064295284  0.0658830665028385
  0.9166666870000029  0.0833333360000026  0.0658903534896444
  0.9166695627670044  0.2083079253374703  0.0658830665028385
  0.9166894142433332  0.3333116463958452  0.0658786051440197
  0.9167092786251521  0.4583388014759694  0.0658802126840836
  0.9167188315704292  0.5833593852852106  0.0658859473860596
  0.9167092786251521  0.7083704461491767  0.0658802126840836
  0.9166894142433332  0.8333777368474888  0.0658786051440197
  0.9166695627670044  0.9583616064295284  0.0658830665028385
  0.0415442394341347  0.0833103308822701  0.2477107028483873
  0.0415442394341347  0.2082339195518620  0.2477107028483873
  0.0417150453728883  0.3334300977457737  0.2475123837493418
  0.0418191580255310  0.4584380806924953  0.2477902639176886
  0.0417340664708290  0.5833816603635583  0.2479434850445719
  0.0417340664708290  0.7083523641072743  0.2479434850445719
  0.0418191580255310  0.8333810653330274  0.2477902639176886
  0.0417150453728883  0.9582849356271066  0.2475123837493418
  0.1665974782742964  0.0832677870972404  0.2479469725867169
  0.1666552139240327  0.2083276139620204  0.2479894499142868
  0.1665974782742964  0.3333296981770672  0.2479469725867169
  0.1666189196669677  0.4584380806924953  0.2477902639176886
  0.1667491475077258  0.5834982640154454  0.2475016424676088
  0.1667548828946340  0.7083774184473152  0.2477526305155823
  0.1667491475077258  0.8332508374922694  0.2475016424676088
  0.1666189196669677  0.9581808229744639  0.2477902639176886
  0.2916095333834236  0.0833214989139088  0.2477216652984391
  0.2916710761062900  0.2083160980083940  0.2471718477320886
  0.2916710761062900  0.3333550070978948  0.2471718477320886
  0.2916095333834236  0.4582880564695166  0.2477216652984391
  0.2916476058927232  0.5833816603635583  0.2479434850445719
  0.2916225515526824  0.7083774184473152  0.2477526305155823
  0.2916225515526824  0.8332451021053612  0.2477526305155823
  0.2916476058927232  0.9582659145291657  0.2479434850445719
  0.4165899704987959  0.0831799629976150  0.2473632348198891
  0.4168225731362858  0.2085014151063855  0.2476735302478727
  0.4167813203589457  0.3333906746794830  0.2481799686306662
  0.4168225731362858  0.4583211870298923  0.2476735302478727
  0.4165899704987959  0.5834099995012015  0.2473632348198891
  0.4166183096364392  0.7083523641072743  0.2479434850445719
  0.4165017059845519  0.8332508374922694  0.2475016424676088
  0.4166183096364392  0.9582659145291657  0.2479434850445719
  0.5417119735304861  0.0833214989139088  0.2477216652984391
  0.5416788429701100  0.2085014151063855  0.2476735302478727
  0.5417624640822694  0.3335248971645255  0.2468679084396510
  0.5417624640822694  0.4582375659177330  0.2468679084396510
  0.5416788429701100  0.5831773968637186  0.2476735302478727
  0.5417119735304861  0.7083904366165744  0.2477216652984391
  0.5415619493075068  0.8333810653330274  0.2477902639176886
  0.5415619493075068  0.9581808229744639  0.2477902639176886
  0.6666703318229351  0.0832677870972404  0.2479469725867169
  0.6666450229021077  0.2083160980083940  0.2471718477320886
  0.6666093553205196  0.3333906746794830  0.2481799686306662
  0.6664751328354767  0.4582375659177330  0.2468679084396510
  0.6666093553205196  0.5832186496410517  0.2481799686306662
  0.6666450229021077  0.7083288938937077  0.2471718477320886
  0.6666703318229351  0.8334025067256989  0.2479469725867169
  0.6665699322542290  0.9582849356271066  0.2475123837493418
  0.7917661104481476  0.0833103308822701  0.2477107028483873
  0.7916724160379821  0.2083276139620204  0.2479894499142868
  0.7916839319916084  0.3333550070978948  0.2471718477320886
  0.7914986148936171  0.4583211870298923  0.2476735302478727
  0.7914986148936171  0.5831773968637186  0.2476735302478727
  0.7916839319916084  0.7083288938937077  0.2471718477320886
  0.7916724160379821  0.8333447710759695  0.2479894499142868
  0.7917661104481476  0.9584557415658604  0.2477107028483873
  0.9166666870000029  0.0833333360000026  0.2475762088181580
  0.9166896921177351  0.2082339195518620  0.2477107028483873
  0.9167322359027650  0.3333296981770672  0.2479469725867169
  0.9166785240860896  0.4582880564695166  0.2477216652984391
  0.9168200600023906  0.5834099995012015  0.2473632348198891
  0.9166785240860896  0.7083904366165744  0.2477216652984391
  0.9167322359027650  0.8334025067256989  0.2479469725867169
  0.9166896921177351  0.9584557415658604  0.2477107028483873
  0.0833690125807909  0.0416738878170482  0.0658407942202676
  0.0833715355081185  0.1666857717540631  0.0658319228597360
  0.0833690125807909  0.2916951137637384  0.0658407942202676
  0.0833459455404639  0.4166918760809303  0.0658466115486420
  0.0833170938321271  0.5416697038291581  0.0658387223544828
  0.0833233673272439  0.6666617026636199  0.0658286745490335
  0.0833170938321271  0.7916474280029790  0.0658387223544828
  0.0833459455404639  0.9166540774595344  0.0658466115486420
  0.2083639268545684  0.0416804141620917  0.0658262038513766
  0.2084047262226065  0.1666869385856617  0.0658201154039157
  0.2084047262226065  0.2917177736369508  0.0658201154039157
  0.2083639268545684  0.4166834946924822  0.0658262038513766
  0.2083526019970235  0.5416697038291581  0.0658387223544828
  0.2083337606791923  0.6666675223583883  0.0658380642925419
  0.2083337606791923  0.7916662693208030  0.0658380642925419
  0.2083526019970235  0.9166829291678786  0.0658387223544828
  0.3333671073430660  0.0416963538802181  0.0658218398947263
  0.3333803706153729  0.1667030240816770  0.0658452832923438
  0.3333735861810013  0.2916867785905120  0.0658639868149257
  0.3333803706153729  0.4166773325337161  0.0658452832923438
  0.3333671073430660  0.5416707654628420  0.0658218398947263
  0.3333383273363824  0.6666617026636199  0.0658286745490335
  0.3333325076416142  0.7916662693208030  0.0658380642925419
  0.3333383273363824  0.9166766556727614  0.0658286745490335
  0.4583292645371466  0.0416963538802181  0.0658218398947263
  0.4583512460916629  0.1667024781833459  0.0658738688123764
  0.4583495429354766  0.2916810575364298  0.0658584095136108
  0.4583495429354766  0.4166684563990553  0.0658584095136108
  0.4583512460916629  0.5416487839083396  0.0658738688123764
  0.4583292645371466  0.6666329226569365  0.0658218398947263
  0.4583303261708442  0.7916474280029790  0.0658387223544828
  0.4583303261708442  0.9166829291678786  0.0658387223544828
  0.5833164753075150  0.0416804141620917  0.0658262038513766
  0.5833226374662814  0.1667030240816770  0.0658452832923438
  0.5833315136009424  0.2916810575364298  0.0658584095136108
  0.5833333129999971  0.4166666570000004  0.0665092397927967
  0.5833315136009424  0.5416504870645259  0.0658584095136108
  0.5833226374662814  0.6666196593846292  0.0658452832923438
  0.5833164753075150  0.7916361031454340  0.0658262038513766
  0.5833080939190745  0.9166540774595344  0.0658466115486420
  0.7083048562362591  0.0416738878170482  0.0658407942202676
  0.7082821963630469  0.1666869385856617  0.0658201154039157
  0.7083131914094927  0.2916867785905120  0.0658639868149257
  0.7083189124635680  0.4166684563990553  0.0658584095136108
  0.7083189124635680  0.5416504870645259  0.0658584095136108
  0.7083131914094856  0.6666264438190009  0.0658639868149257
  0.7082821963630469  0.7915953037773890  0.0658201154039157
  0.7083048562362591  0.9166310104192147  0.0658407942202676
  0.8333110720222520  0.0416555475111288  0.0658394329466549
  0.8333142132459319  0.1666857717540631  0.0658319228597360
  0.8333130464143333  0.2917177736369508  0.0658201154039157
  0.8332969609183182  0.4166773325337161  0.0658452832923438
  0.8332975068166493  0.5416487839083396  0.0658738688123764
  0.8332969609183182  0.6666196593846292  0.0658452832923438
  0.8333130464143333  0.7915953037773890  0.0658201154039157
  0.8333142132459319  0.9166284874918869  0.0658319228597360
  0.9583444334888661  0.0416555475111288  0.0658394329466549
  0.9583444334888661  0.1666889129777431  0.0658394329466549
  0.9583260931829538  0.2916951137637384  0.0658407942202676
  0.9583195668379031  0.4166834946924822  0.0658262038513766
  0.9583036271197769  0.5416707654628420  0.0658218398947263
  0.9583036271197769  0.6666329226569365  0.0658218398947263
  0.9583195668379031  0.7916361031454340  0.0658262038513766
  0.9583260931829538  0.9166310104192147  0.0658407942202676
  0.0831664636037827  0.0416381645363312  0.2475317631755017
  0.0832987831118335  0.1666493955559100  0.2481762474853797
  0.0831664636037827  0.2915282880674543  0.2475317631755017
  0.0832979740023669  0.4165959330047220  0.2475897163304106
  0.0834260377323358  0.5417817768175676  0.2475582670567220
  0.0834579778074827  0.6667290079037392  0.2481966646010806
  0.0834260377323358  0.7916442989147638  0.2475582670567220
  0.0832979740023669  0.9167020489976386  0.2475897163304106
  0.2082219050459199  0.0416345192278407  0.2483274587925570
  0.2081848610694447  0.1666394628663185  0.2478809090428077
  0.2081848610694447  0.2915453842031178  0.2478809090428077
  0.2082219050459199  0.4165873678180707  0.2483274587925570
  0.2083557310852384  0.5417817768175676  0.2475582670567220
  0.2084153791152168  0.6668307592304231  0.2476092012352004
  0.2084153791152168  0.7915846508847856  0.2476092012352004
  0.2083557310852384  0.9165739852676696  0.2475582670567220
  0.3332364314905449  0.0416025052566245  0.2478711360611220
  0.3334247816667563  0.1667284795313002  0.2470921549132813
  0.3334488516701601  0.2917244113350700  0.2468848979722559
  0.3334247816667563  0.4166962881354478  0.2470921549132813
  0.3332364314905449  0.5416339382339289  0.2478711360611220
  0.3332710220962629  0.6667290079037392  0.2481966646010806
  0.3331692707695723  0.7915846508847856  0.2476092012352004
  0.3332710220962629  0.9165420451925224  0.2481966646010806
  0.4583660917660740  0.0416025052566245  0.2478711360611220
  0.4583524103876641  0.1667048067753129  0.2469165032126865
  0.4585634122167646  0.2919328395163585  0.2487736090256291
  0.4585634122167646  0.4166305437003932  0.2487736090256291
  0.4583524103876641  0.5416476196123384  0.2469165032126865
  0.4583660917660740  0.6667635985094574  0.2478711360611220
  0.4582182531824346  0.7916442989147638  0.2475582670567220
  0.4582182531824346  0.9165739852676696  0.2475582670567220
  0.5834126021819269  0.0416345192278407  0.2483274587925570
  0.5833036818645495  0.1667284795313002  0.2470921549132813
  0.5833694262995975  0.2919328395163656  0.2487736090256291
  0.5833333129999971  0.4166666570000004  0.2423616107171744
  0.5833694262995975  0.5414366177832379  0.2487736090256291
  0.5833036818645495  0.6665752483332461  0.2470921549132813
  0.5834126021819269  0.7917781249540827  0.2483274587925570
  0.5834040369952754  0.9167020489976386  0.2475897163304106
  0.7084716819325434  0.0416381645363312  0.2475317631755017
  0.7084545857968795  0.1666394628663185  0.2478809090428077
  0.7082755586649202  0.2917244113350700  0.2468848979722559
  0.7080671304836392  0.4166305437003932  0.2487736090256291
  0.7080671304836392  0.5414366177832379  0.2487736090256291
  0.7082755586649202  0.6665511783298494  0.2468848979722559
  0.7084545857968795  0.7918151689305578  0.2478809090428077
  0.7084716819325434  0.9168335593962227  0.2475317631755017
  0.8335301138634166  0.0417650684317075  0.2475813829591374
  0.8333505894440852  0.1666493955559100  0.2481762474853797
  0.8333605221336768  0.2915453842031178  0.2478809090428077
  0.8332715054686951  0.4166962881354478  0.2470921549132813
  0.8332951782246824  0.5416476196123384  0.2469165032126865
  0.8332715054686951  0.6665752483332461  0.2470921549132813
  0.8333605221336768  0.7918151689305578  0.2478809090428077
  0.8333505894440852  0.9167012398881789  0.2481762474853797
  0.9582349125682873  0.0417650684317075  0.2475813829591374
  0.9582349125682873  0.1664698711365784  0.2475813829591374
  0.9583618164636637  0.2915282880674543  0.2475317631755017
  0.9583654617721541  0.4165873678180707  0.2483274587925570
  0.9583974757433702  0.5416339382339289  0.2478711360611220
  0.9583974757433702  0.6667635985094574  0.2478711360611220
  0.9583654617721541  0.7917781249540827  0.2483274587925570
  0.9583618164636637  0.9168335593962227  0.2475317631755017
  0.0416617104801036  0.0833391054878883  0.1522935240901738
  0.0416617104801036  0.2083226159922126  0.1522935240901738
  0.0416509435816733  0.3333018941633366  0.1522605369978120
  0.0416550487960899  0.4583334980286778  0.1522650678068847
  0.0416654184165880  0.5833426332896966  0.1522643278117732
  0.0416654184165880  0.7083227431268807  0.1522643278117732
  0.0416550487960899  0.8333215387674110  0.1522650678068847
  0.0416509435816733  0.9583490374183214  0.1522605369978120
  0.1666656177794080  0.0833513447945066  0.1522444301643940
  0.1666677390258251  0.2083338765129237  0.1522269158184768
  0.1666656177794080  0.3333142799849126  0.1522444301643940
  0.1666784462325841  0.4583334980286778  0.1522650678068847
  0.1666764912967039  0.5833529515933945  0.1522813679331104
  0.1666722244772740  0.7083360892386282  0.1522705316667164
  0.1666764912967039  0.8333234937032913  0.1522813679331104
  0.1666784462325841  0.9583449322039052  0.1522650678068847
  0.2916968713721292  0.0833577187185334  0.1522255375501292
  0.2916880762667376  0.2083508315033092  0.1522284571899602
  0.2916880762667376  0.3333372737634273  0.1522284571899602
  0.2916968713721292  0.4583391746536046  0.1522255375501292
  0.2916772268731167  0.5833426332896966  0.1522643278117732
  0.2916638807613696  0.7083360892386282  0.1522705316667164
  0.2916638807613696  0.8333277605227214  0.1522705316667164
  0.2916772268731167  0.9583345625834073  0.1522643278117732
  0.4166741354787874  0.0833482929575839  0.1522241296744208
  0.4167104632582598  0.2083670051562670  0.1522974141047346
  0.4167165294621437  0.3333582792310641  0.1522715806081481
  0.4167104632582598  0.4583434871019916  0.1522974141047346
  0.4166741354787874  0.5833258345212028  0.1522241296744208
  0.4166573367103009  0.7083227431268807  0.1522643278117732
  0.4166470184066030  0.8333234937032913  0.1522813679331104
  0.4166573367103009  0.9583345625834073  0.1522643278117732
  0.5416608553463976  0.0833577187185334  0.1522255375501292
  0.5416565428980107  0.2083670051562670  0.1522974141047346
  0.5416757999900675  0.3333515689801424  0.1528073574182946
  0.5416757999900675  0.4583242300099354  0.1528073574182946
  0.5416565428980107  0.5832895067417375  0.1522974141047346
  0.5416608553463976  0.7083030986278684  0.1522255375501292
  0.5416665319713247  0.8333215387674110  0.1522650678068847
  0.5416665319713247  0.9583449322039052  0.1522650678068847
  0.6666857500150899  0.0833513447945066  0.1522444301643940
  0.6666627562365751  0.2083508315033092  0.1522284571899602
  0.6666417507689384  0.3333582792310641  0.1522715806081481
  0.6666484610198603  0.4583242300099354  0.1528073574182946
  0.6666417507689384  0.5832834405378540  0.1522715806081481
  0.6666627562365751  0.7083118937332600  0.1522284571899602
  0.6666857500150899  0.8333343672205871  0.1522444301643940
  0.6666981358366659  0.9583490374183214  0.1522605369978120
  0.7916774140077901  0.0833391054878883  0.1522935240901738
  0.7916661534870784  0.2083338765129237  0.1522269158184768
  0.7916491984966930  0.3333372737634273  0.1522284571899602
  0.7916330248437354  0.4583434871019916  0.1522974141047346
  0.7916330248437354  0.5832895067417375  0.1522974141047346
  0.7916491984966930  0.7083118937332600  0.1522284571899602
  0.7916661534870784  0.8333322459741629  0.1522269158184768
  0.7916774140077901  0.9583382705198983  0.1522935240901738
  0.9166666870000029  0.0833333360000026  0.1522449953054489
  0.9166609175121175  0.2083226159922126  0.1522935240901738
  0.9166486782054989  0.3333142799849126  0.1522444301643940
  0.9166423042814721  0.4583391746536046  0.1522255375501292
  0.9166517300424217  0.5833258345212028  0.1522241296744208
  0.9166423042814721  0.7083030986278684  0.1522255375501292
  0.9166486782054989  0.8333343672205871  0.1522444301643940
  0.9166609175121175  0.9583382705198983  0.1522935240901738
  0.0411964551079729  0.0832499029325559  0.3339314767460777
  0.0411964551079729  0.2079465631754072  0.3339314767460777
  0.0423758389431125  0.3347516848862079  0.3340191626104301
  0.0424207301175039  0.4593012078433633  0.3342577395839093
  0.0414373654200486  0.5836234209075836  0.3343592821274635
  0.0414373654200486  0.7078139025124545  0.3343592821274635
  0.0424207301175039  0.8331195102741324  0.3342577395839093
  0.0423758389431125  0.9576241420568826  0.3340191626104301
  0.1663783219162811  0.0831408552236983  0.3343615223593821
  0.1661434169269889  0.2080717154634844  0.3344353422575885
  0.1663783219162811  0.3332374736925940  0.3343615223593821
  0.1668804747258626  0.4593012078433633  0.3342577395839093
  0.1671505035597679  0.5843009761195298  0.3340636073174859
  0.1665562879790516  0.7082781209895168  0.3341831457273323
  0.1671505035597679  0.8328494814402274  0.3340636073174859
  0.1668804747258626  0.9575792508824984  0.3342577395839093
  0.2905113747245570  0.0838758315348275  0.3342733761785642
  0.2925185166205905  0.2091154026765298  0.3343077241199092
  0.2925185166205905  0.3334031429440666  0.3343077241199092
  0.2905113747245570  0.4566355651897168  0.3342733761785642
  0.2921860674875361  0.5836234209075836  0.3343592821274635
  0.2917218490104808  0.7082781209895168  0.3341831457273323
  0.2917218490104808  0.8334436970209508  0.3341831457273323
  0.2921860674875361  0.9585626155799463  0.3343592821274635
  0.4166311785169066  0.0832623790338292  0.3341496835897816
  0.4173871760950109  0.2085259389766748  0.3340765105662642
  0.4170536622263798  0.3335268456131857  0.3344618187601759
  0.4173871760950109  0.4588612661183208  0.3340765105662642
  0.4166311785169066  0.5833687914830910  0.3341496835897816
  0.4163765490924137  0.7078139025124545  0.3343592821274635
  0.4156989938804678  0.8328494814402274  0.3340636073174859
  0.4163765490924137  0.9585626155799464  0.3343592821274635
  0.5433644648102853  0.0838758315348275  0.3342733761785642
  0.5411387638816817  0.2085259389766748  0.3340765105662642
  0.5406060675015453  0.3312121040030919  0.3294415297456763
  0.5406060675015453  0.4593939624984569  0.3294415297456763
  0.5411387638816817  0.5826127939049934  0.3340765105662642
  0.5433644648102853  0.7094885952754407  0.3342733761785642
  0.5406988221566323  0.8331195102741324  0.3342577395839093